python/teste/teste36
4 3
1 4 2 3 0 9
0 3 2 6 1 7
0 1 1 6 2 5
2 1 1 7 0 1
