python/teste36.lp
\ LP format - for model browsing. Use MPS format to capture full model detail.
Minimize
  2 x0 - 2 x1 + 2 x2
Subject To
 constr(0): - x0 + 2 x2 <= 15
 constr(1): 4 x0 + 5 x1 - x2 <= 9
Bounds
 x0 <= 5
 x1 <= 4
 x2 <= 3
Generals
 x0 x1 x2
End
